n = 39;
lu = [|-161, 39
      |-841, -576
      |58, 846
      |-360, 1305
      |-388, 744
      |49, 1475
      |-1483, 840
      |-501, 1188
      |-1446, 278
      |-908, -886
      |-215, 1441
      |-835, -467
      |1160, 1310
      |870, 1021
      |-1278, -1031
      |-1386, 886
      |-367, 250
      |-637, 1488
      |-1224, 1453
      |-46, 1478
      |-1009, 425
      |753, 1223
      |-1446, -1015
      |-1117, -933
      |-793, 1300
      |-1302, -430
      |-599, -220
      |-1415, 1018
      |845, 970
      |-776, 260
      |-1286, -287
      |-924, 115
      |-1084, 1213
      |-1138, 146
      |-1433, 1196
      |499, 1167
      |-578, 96
      |-1433, -1170
      |-1203, -969|];
